p edge 15 51
e 1 2
e 2 3
e 3 1
e 4 5
e 5 6
e 6 4
e 7 8
e 8 9
e 9 7
e 10 11
e 11 12
e 12 10
e 13 14
e 14 15
e 15 13
e 1 4
e 1 5
e 1 6
e 1 7
e 1 8
e 1 9
e 1 10
e 1 11
e 1 12
e 1 13
e 1 14
e 1 15
e 2 4
e 2 5
e 2 6
e 2 7
e 2 8
e 2 9
e 2 10
e 2 11
e 2 12
e 2 13
e 2 14
e 2 15
e 3 4
e 3 5
e 3 6
e 3 7
e 3 8
e 3 9
e 3 10
e 3 11
e 3 12
e 3 13
e 3 14
e 3 15
